c Generated map
c Size: 9 * 9, weights in range: 1 to 10, walls: True, with ratio 0.1
c dim 6 of 8
c
p sp 81 118
c graph contains 81 nodes and 118 arcs
c
a 1 10 8
a 10 1 8
a 1 2 1
a 2 1 1
a 2 11 8
a 11 2 8
a 5 14 2
a 14 5 2
a 5 6 10
a 6 5 10
a 6 15 5
a 15 6 5
a 6 7 4
a 7 6 4
a 7 16 1
a 16 7 1
a 7 8 5
a 8 7 5
a 8 17 2
a 17 8 2
a 8 9 9
a 9 8 9
a 9 18 6
a 18 9 6
a 10 19 10
a 19 10 10
a 10 11 7
a 11 10 7
a 11 20 2
a 20 11 2
a 11 12 3
a 12 11 3
a 12 21 6
a 21 12 6
a 12 13 4
a 13 12 4
a 13 22 1
a 22 13 1
a 13 14 9
a 14 13 9
a 14 23 6
a 23 14 6
a 14 15 6
a 15 14 6
a 15 16 7
a 16 15 7
a 16 25 2
a 25 16 2
a 16 17 2
a 17 16 2
a 17 18 8
a 18 17 8
a 18 27 9
a 27 18 9
a 19 28 6
a 28 19 6
a 19 20 8
a 20 19 8
a 20 29 8
a 29 20 8
a 20 21 5
a 21 20 5
a 21 30 2
a 30 21 2
a 21 22 8
a 22 21 8
a 22 31 7
a 31 22 7
a 22 23 10
a 23 22 10
a 23 32 7
a 32 23 7
a 25 34 3
a 34 25 3
a 27 36 5
a 36 27 5
a 28 37 4
a 37 28 4
a 28 29 1
a 29 28 1
a 29 38 9
a 38 29 9
a 29 30 5
a 30 29 5
a 30 39 4
a 39 30 4
a 30 31 6
a 31 30 6
a 31 40 4
a 40 31 4
a 31 32 1
a 32 31 1
a 32 41 3
a 41 32 3
a 32 33 3
a 33 32 3
a 33 42 4
a 42 33 4
a 33 34 8
a 34 33 8
a 34 43 4
a 43 34 4
a 34 35 10
a 35 34 10
a 35 44 7
a 44 35 7
a 35 36 5
a 36 35 5
a 36 45 9
a 45 36 9
a 37 46 1
a 46 37 1
a 37 38 5
a 38 37 5
a 38 39 5
a 39 38 5
a 39 48 3
a 48 39 3
a 39 40 8
a 40 39 8
a 40 49 7
a 49 40 7
a 40 41 6
a 41 40 6
a 41 50 6
a 50 41 6
a 41 42 10
a 42 41 10
a 42 51 6
a 51 42 6
a 42 43 4
a 43 42 4
a 43 52 4
a 52 43 4
a 43 44 8
a 44 43 8
a 44 53 7
a 53 44 7
a 44 45 6
a 45 44 6
a 45 54 6
a 54 45 6
a 46 55 10
a 55 46 10
a 48 57 7
a 57 48 7
a 48 49 5
a 49 48 5
a 49 58 1
a 58 49 1
a 49 50 1
a 50 49 1
a 50 59 1
a 59 50 1
a 50 51 9
a 51 50 9
a 51 60 7
a 60 51 7
a 51 52 4
a 52 51 4
a 52 61 5
a 61 52 5
a 52 53 8
a 53 52 8
a 53 62 10
a 62 53 10
a 53 54 8
a 54 53 8
a 54 63 7
a 63 54 7
a 55 56 2
a 56 55 2
a 56 65 6
a 65 56 6
a 56 57 9
a 57 56 9
a 57 58 1
a 58 57 1
a 58 67 8
a 67 58 8
a 58 59 10
a 59 58 10
a 59 68 4
a 68 59 4
a 59 60 2
a 60 59 2
a 60 69 3
a 69 60 3
a 60 61 10
a 61 60 10
a 61 70 9
a 70 61 9
a 61 62 9
a 62 61 9
a 62 71 4
a 71 62 4
a 62 63 7
a 63 62 7
a 63 72 1
a 72 63 1
a 65 74 8
a 74 65 8
a 67 76 6
a 76 67 6
a 67 68 1
a 68 67 1
a 68 77 7
a 77 68 7
a 68 69 1
a 69 68 1
a 69 78 2
a 78 69 2
a 69 70 2
a 70 69 2
a 70 79 7
a 79 70 7
a 70 71 4
a 71 70 4
a 71 80 2
a 80 71 2
a 71 72 6
a 72 71 6
a 72 81 6
a 81 72 6
a 73 74 4
a 74 73 4
a 76 77 7
a 77 76 7
a 77 78 2
a 78 77 2
a 78 79 5
a 79 78 5
a 79 80 7
a 80 79 7
a 80 81 6
a 81 80 6
